1727
1   1   0    56   0 2 10 18 9 1 4 0
1   2   0    56   0 7 15 8 21 13 5 0
1   3   0    54   0 3 26 34 35 27 19 11 12 20 6 0
1   4   0    0    0 0
1   5   0    0    0 0
2   1   0    58   0 44 46 55 63 54 62 70 78 76 68 60 0
2   2   0    44   0 47 48 53 45 0
2   3   0    56   0 52 65 73 38 30 57 49 41 56 64 72 80 79 71 0
2   4   0    52   0 43 31 23 14 28 17 25 33 36 22 42 0
2   5   0    56   0 61 69 77 51 59 67 75 40 32 24 37 29 16 39 74 66 58 50 0